<?xml version = "1.0" encoding="UTF-8" standalone="yes"?>
<CPLEXSolution version="1.2">
 <header
   problemName="inst_10_cut_n3"
   objectiveValue="88"
   solutionTypeValue="1"
   solutionTypeString="basic"
   solutionStatusValue="1"
   solutionStatusString="optimal"
   solutionMethodString="dual"
   primalFeasible="1"
   dualFeasible="1"
   simplexIterations="1"
   writeLevel="1"/>
 <quality
   epRHS="9.9999999999999995e-07"
   epOpt="9.9999999999999995e-07"
   maxPrimalInfeas="0"
   maxDualInfeas="0"
   maxPrimalResidual="2.2204460492503131e-16"
   maxDualResidual="0"
   maxX="1"
   maxPi="83"
   maxSlack="915"
   maxRedCost="402"
   kappa="182.61644306845545"/>
 <linearConstraints>
  <constraint name="c0" index="0" status="BS" slack="228" dual="-0"/>
  <constraint name="c1" index="1" status="BS" slack="659" dual="-0"/>
  <constraint name="c2" index="2" status="BS" slack="3" dual="-0"/>
  <constraint name="c3" index="3" status="BS" slack="580" dual="-0"/>
  <constraint name="c4" index="4" status="BS" slack="915" dual="-0"/>
  <constraint name="cut_1" index="5" status="BS" slack="4.0000000000000107" dual="-0"/>
  <constraint name="cut_2" index="6" status="BS" slack="1.999999999999952" dual="-0"/>
  <constraint name="cut_3" index="7" status="LL" slack="0" dual="83"/>
 </linearConstraints>
 <variables>
  <variable name="x0" index="0" status="LL" value="0" reducedCost="-57"/>
  <variable name="x1" index="1" status="BS" value="0" reducedCost="0"/>
  <variable name="x2" index="2" status="LL" value="0" reducedCost="-183"/>
  <variable name="x3" index="3" status="LL" value="0" reducedCost="-217"/>
  <variable name="x4" index="4" status="UL" value="1" reducedCost="4"/>
  <variable name="x5" index="5" status="LL" value="0" reducedCost="-402"/>
  <variable name="x6" index="6" status="LL" value="0" reducedCost="-196"/>
  <variable name="x7" index="7" status="LL" value="0" reducedCost="-258"/>
  <variable name="x8" index="8" status="LL" value="0" reducedCost="-181"/>
  <variable name="x9" index="9" status="LL" value="0" reducedCost="-1"/>
  <variable name="x10" index="10" status="UL" value="1" reducedCost="84"/>
  <variable name="x11" index="11" status="LL" value="0" reducedCost="-243"/>
  <variable name="s0" index="12" status="LL" value="0" reducedCost="0"/>
  <variable name="s1" index="13" status="LL" value="0" reducedCost="0"/>
  <variable name="s2" index="14" status="LL" value="0" reducedCost="0"/>
  <variable name="s3" index="15" status="LL" value="0" reducedCost="0"/>
  <variable name="s4" index="16" status="LL" value="0" reducedCost="0"/>
 </variables>
 <objectiveValues>
  <objective index="0" name="" value="88"/>
 </objectiveValues>
</CPLEXSolution>
